n = 34;
lu = [|306, 1010
      |-1043, -217
      |-1034, 437
      |-892, 337
      |98, 581
      |-769, 241
      |-522, 939
      |-761, -33
      |-1150, 265
      |-522, 989
      |-906, -803
      |-111, 356
      |-912, 1104
      |-473, 428
      |39, 113
      |129, 407
      |-313, -285
      |699, 1036
      |-619, -422
      |449, 1070
      |-189, 580
      |-698, -139
      |-850, 664
      |-6, 543
      |-677, 2
      |-441, -346
      |244, 504
      |-787, 691
      |787, 975
      |564, 735
      |-620, 329
      |-29, 662
      |-582, -199
      |-514, 57|];
